Optimal - objective value 1542.00000000
      0 x_0                    1                       0
      6 x_6                    1                       8
     15 x_15                   1         -4.96009191216321
     17 x_17                   1                       0
     23 x_23                   1                       0
     25 x_25                   1                      12
     31 x_31                   1                       0
     34 x_34                   1                      16
     42 x_42                   1                       0
     44 x_44                   1         -16.2141510047473
     49 x_49                   1                       0
     57 x_57                   1                       0
     62 x_62                   1                       0
     66 x_66                   1         7.40424009884891
     67 x_67                   1                       0
     74 x_74                   1         2.96490429429233
     77 x_77                   1                       0
     80 x_80                   1         15.6858511629923
     83 x_83                   1                       0
     87 x_87                   1                       0
     90 x_90                   1                       0
     94 x_94                   1                       0
     96 x_96                   1                       0
    101 x_101                  1                       0
    104 x_104                  1                      -8
    111 x_111                  1         14.6187812967419
    114 x_114                  1                       0
    119 x_119                  1                       0
    127 x_127                  1                       0
    132 x_132                  1                       0
    137 x_137                  1                       0
    140 x_140                  1                      13
    143 x_143                  1                       0
    146 x_146                  1                       0
    150 x_150                  1                      -5
    153 x_153                  1                       0
    159 x_159                  1                       0
    165 x_165                  1                       2
    166 x_166                  1                       0
    169 x_169                  1                       0
    174 x_174                  1                       0
    179 x_179                  1         16.8471526739069
    184 x_184                  1                       0
    188 x_188                  1                       0
    192 x_192                  1                       0
    198 x_198                  1                       0
    201 x_201                  1                       0
    203 x_203                  1         1.90106436019162
    210 x_210                  1                       8
    212 x_212                  1                       0
    222 x_222                  1                       0
    226 x_226                  1         -2.61136762697534
    230 x_230                  1                       0
    233 x_233                  1         -6.70798378530706
    238 x_238                  1                       0
    244 x_244                  1                      12
    250 x_250                  1                       0
    251 x_251                  1         26.4495241811363
    254 x_254                  1                       0
    260 x_260                  1                       0
    266 x_266                  1         -5.1600658992868
    269 x_269                  1                       0
    274 x_274                  1                       0
    275 x_275                  1                       4
    282 x_282                  1                       0
    285 x_285                  1                       0
    289 x_289                  1                       0
    293 x_293                  1         13.3163382541024
    299 x_299                  1                       0
    300 x_300                  1                       0
    310 x_310                  1                       0
    311 x_311                  1                       0
    314 x_314                  1                       0
    319 x_319                  1                       0
    324 x_324                  1                       0
    327 x_327                  1                       0
    332 x_332                  1                       0
    338 x_338                  1                     -12
    341 x_341                  1                       0
    347 x_347                  1                       0
    349 x_349                  1                       0
    355 x_355                  1                       5
    362 x_362                  1                      13
    366 x_366                  1                       0
    375 x_375                  1                       0
    377 x_377                  1                       0
    386 x_386                  1                      -4
    391 x_391                  1         13.0614987752271
    394 x_394                  1                       0
    402 x_402                  1                       0
    404 x_404                  1                       0
    412 x_412                  1                       0
    416 x_416                  1                       0
    420 x_420                  1                       0
    427 x_427                  1                       0
    429 x_429                  1                       0
    433 x_433                  1                       0
    436 x_436                  1                       0
    439 x_439                  1                       0
    444 x_444                  1                       0
Optimal - objective value 1542.00000000
      0 x_0                    1                       0
      6 x_6                    1                       8
     15 x_15                   1         -4.96009191216321
     17 x_17                   1                       0
     23 x_23                   1                       0
     25 x_25                   1                      12
     31 x_31                   1                       0
     34 x_34                   1                      16
     42 x_42                   1                       0
     44 x_44                   1         -16.2141510047473
     49 x_49                   1                       0
     57 x_57                   1                       0
     62 x_62                   1                       0
     66 x_66                   1         7.40424009884891
     67 x_67                   1                       0
     74 x_74                   1         2.96490429429233
     77 x_77                   1                       0
     80 x_80                   1         15.6858511629923
     83 x_83                   1                       0
     87 x_87                   1                       0
     90 x_90                   1                       0
     94 x_94                   1                       0
     96 x_96                   1                       0
    101 x_101                  1                       0
    104 x_104                  1                      -8
    111 x_111                  1         14.6187812967419
    114 x_114                  1                       0
    119 x_119                  1                       0
    127 x_127                  1                       0
    132 x_132                  1                       0
    137 x_137                  1                       0
    140 x_140                  1                      13
    143 x_143                  1                       0
    146 x_146                  1                       0
    150 x_150                  1                      -5
    153 x_153                  1                       0
    159 x_159                  1                       0
    165 x_165                  1                       2
    166 x_166                  1                       0
    169 x_169                  1                       0
    174 x_174                  1                       0
    179 x_179                  1         16.8471526739069
    184 x_184                  1                       0
    188 x_188                  1                       0
    192 x_192                  1                       0
    198 x_198                  1                       0
    201 x_201                  1                       0
    203 x_203                  1         1.90106436019162
    210 x_210                  1                       8
    212 x_212                  1                       0
    222 x_222                  1                       0
    226 x_226                  1         -2.61136762697534
    230 x_230                  1                       0
    233 x_233                  1         -6.70798378530706
    238 x_238                  1                       0
    244 x_244                  1                      12
    250 x_250                  1                       0
    251 x_251                  1         26.4495241811363
    254 x_254                  1                       0
    260 x_260                  1                       0
    266 x_266                  1         -5.1600658992868
    269 x_269                  1                       0
    274 x_274                  1                       0
    275 x_275                  1                       4
    282 x_282                  1                       0
    285 x_285                  1                       0
    289 x_289                  1                       0
    293 x_293                  1         13.3163382541024
    299 x_299                  1                       0
    300 x_300                  1                       0
    310 x_310                  1                       0
    311 x_311                  1                       0
    314 x_314                  1                       0
    319 x_319                  1                       0
    324 x_324                  1                       0
    327 x_327                  1                       0
    332 x_332                  1                       0
    338 x_338                  1                     -12
    341 x_341                  1                       0
    347 x_347                  1                       0
    349 x_349                  1                       0
    355 x_355                  1                       5
    362 x_362                  1                      13
    366 x_366                  1                       0
    375 x_375                  1                       0
    377 x_377                  1                       0
    386 x_386                  1                      -4
    391 x_391                  1         13.0614987752271
    394 x_394                  1                       0
    402 x_402                  1                       0
    404 x_404                  1                       0
    412 x_412                  1                       0
    416 x_416                  1                       0
    420 x_420                  1                       0
    427 x_427                  1                       0
    429 x_429                  1                       0
    433 x_433                  1                       0
    436 x_436                  1                       0
    439 x_439                  1                       0
    444 x_444                  1                       0
